Maximize
  36 x0_0_ + 36 x0_1_ + 36 x0_2_ + 36 x0_3_ + 36 x0_4_ + 36 x0_5_ + 28 x0_6_
   + 8 x0_7_ + 8 x0_8_ + 8 x0_9_ + 144 x1_7_ + 144 x1_8_ + 144 x1_9_
   + 34 x2_7_ + 34 x2_8_ + 34 x2_9_ + 18 x3_0_ + 18 x3_1_ + 18 x3_2_
   + 18 x3_3_ + 18 x3_4_ + 18 x3_5_ + 14 x3_6_ + 4 x3_7_ + 4 x3_8_
   + 4 x3_9_ + 36 x4_0_ + 36 x4_1_ + 36 x4_2_ + 36 x4_3_ + 36 x4_4_
   + 36 x4_5_ + 28 x4_6_ + 8 x4_7_ + 8 x4_8_ + 8 x4_9_ + 216 x5_7_
   + 216 x5_8_ + 216 x5_9_ + 9 x6_0_ + 9 x6_1_ + 9 x6_2_ + 9 x6_3_
   + 9 x6_4_ + 9 x6_5_ + 7 x6_6_ + 2 x6_7_ + 2 x6_8_ + 2 x6_9_ + 18 x7_0_
   + 18 x7_1_ + 18 x7_2_ + 18 x7_3_ + 18 x7_4_ + 18 x7_5_ + 14 x7_6_
   + 4 x7_7_ + 4 x7_8_ + 4 x7_9_ + 9 x8_0_ + 9 x8_1_ + 9 x8_2_ + 9 x8_3_
   + 9 x8_4_ + 9 x8_5_ + 7 x8_6_ + 2 x8_7_ + 2 x8_8_ + 2 x8_9_ + 72 x9_7_
   + 72 x9_8_ + 72 x9_9_ + 18 x10_0_ + 18 x10_1_ + 18 x10_2_ + 18 x10_3_
   + 18 x10_4_ + 18 x10_5_ + 14 x10_6_ + 4 x10_7_ + 4 x10_8_ + 4 x10_9_
   + 360 x11_7_ + 360 x11_8_ + 360 x11_9_ + 27 x12_0_ + 27 x12_1_
   + 27 x12_2_ + 27 x12_3_ + 27 x12_4_ + 27 x12_5_ + 21 x12_6_ + 6 x12_7_
   + 6 x12_8_ + 6 x12_9_ + 144 x13_7_ + 144 x13_8_ + 144 x13_9_
   + 288 x14_7_ + 288 x14_8_ + 288 x14_9_ + 68 x15_7_ + 68 x15_8_
   + 68 x15_9_ + 18 x16_0_ + 18 x16_1_ + 18 x16_2_ + 18 x16_3_ + 18 x16_4_
   + 18 x16_5_ + 14 x16_6_ + 4 x16_7_ + 4 x16_8_ + 4 x16_9_ + 18 x17_0_
   + 18 x17_1_ + 18 x17_2_ + 18 x17_3_ + 18 x17_4_ + 18 x17_5_ + 14 x17_6_
   + 4 x17_7_ + 4 x17_8_ + 4 x17_9_ + 216 x18_7_ + 216 x18_8_ + 216 x18_9_
   + 102 x19_7_ + 102 x19_8_ + 102 x19_9_
Subject To
 R0: x0_0_ + x0_1_ + x0_2_ + x0_3_ + x0_4_ + x0_5_ + x0_6_ + x0_7_ + x0_8_
   + x0_9_ + x0_n_ = 1
 R1: x1_6_ + x1_7_ + x1_8_ + x1_9_ + x1_n_ = 1
 R2: x2_7_ + x2_8_ + x2_9_ + x2_n_ = 1
 R3: x3_0_ + x3_1_ + x3_2_ + x3_3_ + x3_4_ + x3_5_ + x3_6_ + x3_7_ + x3_8_
   + x3_9_ + x3_n_ = 1
 R4: x4_0_ + x4_1_ + x4_2_ + x4_3_ + x4_4_ + x4_5_ + x4_6_ + x4_7_ + x4_8_
   + x4_9_ + x4_n_ = 1
 R5: x5_6_ + x5_7_ + x5_8_ + x5_9_ + x5_n_ = 1
 R6: x6_0_ + x6_1_ + x6_2_ + x6_3_ + x6_4_ + x6_5_ + x6_6_ + x6_7_ + x6_8_
   + x6_9_ + x6_n_ = 1
 R7: x7_0_ + x7_1_ + x7_2_ + x7_3_ + x7_4_ + x7_5_ + x7_6_ + x7_7_ + x7_8_
   + x7_9_ + x7_n_ = 1
 R8: x8_0_ + x8_1_ + x8_2_ + x8_3_ + x8_4_ + x8_5_ + x8_6_ + x8_7_ + x8_8_
   + x8_9_ + x8_n_ = 1
 R9: x9_6_ + x9_7_ + x9_8_ + x9_9_ + x9_n_ = 1
 R10: x10_0_ + x10_1_ + x10_2_ + x10_3_ + x10_4_ + x10_5_ + x10_6_ + x10_7_
   + x10_8_ + x10_9_ + x10_n_ = 1
 R11: x11_6_ + x11_7_ + x11_8_ + x11_9_ + x11_n_ = 1
 R12: x12_0_ + x12_1_ + x12_2_ + x12_3_ + x12_4_ + x12_5_ + x12_6_ + x12_7_
   + x12_8_ + x12_9_ + x12_n_ = 1
 R13: x13_6_ + x13_7_ + x13_8_ + x13_9_ + x13_n_ = 1
 R14: x14_6_ + x14_7_ + x14_8_ + x14_9_ + x14_n_ = 1
 R15: x15_7_ + x15_8_ + x15_9_ + x15_n_ = 1
 R16: x16_0_ + x16_1_ + x16_2_ + x16_3_ + x16_4_ + x16_5_ + x16_6_ + x16_7_
   + x16_8_ + x16_9_ + x16_n_ = 1
 R17: x17_0_ + x17_1_ + x17_2_ + x17_3_ + x17_4_ + x17_5_ + x17_6_ + x17_7_
   + x17_8_ + x17_9_ + x17_n_ = 1
 R18: x18_6_ + x18_7_ + x18_8_ + x18_9_ + x18_n_ = 1
 R19: x19_7_ + x19_8_ + x19_9_ + x19_n_ = 1
 R20: x0_0_ + x3_0_ <= 1
 R21: x0_1_ + x3_1_ <= 1
 R22: x0_2_ + x3_2_ <= 1
 R23: x0_3_ + x3_3_ <= 1
 R24: x0_4_ + x3_4_ <= 1
 R25: x0_5_ + x3_5_ <= 1
 R26: x0_6_ + x3_6_ <= 1
 R27: x0_7_ + x3_7_ <= 1
 R28: x0_8_ + x3_8_ <= 1
 R29: x0_9_ + x3_9_ <= 1
 R30: x0_0_ + x8_0_ <= 1
 R31: x0_1_ + x8_1_ <= 1
 R32: x0_2_ + x8_2_ <= 1
 R33: x0_3_ + x8_3_ <= 1
 R34: x0_4_ + x8_4_ <= 1
 R35: x0_5_ + x8_5_ <= 1
 R36: x0_6_ + x8_6_ <= 1
 R37: x0_7_ + x8_7_ <= 1
 R38: x0_8_ + x8_8_ <= 1
 R39: x0_9_ + x8_9_ <= 1
 R40: x0_0_ + x10_0_ <= 1
 R41: x0_1_ + x10_1_ <= 1
 R42: x0_2_ + x10_2_ <= 1
 R43: x0_3_ + x10_3_ <= 1
 R44: x0_4_ + x10_4_ <= 1
 R45: x0_5_ + x10_5_ <= 1
 R46: x0_6_ + x10_6_ <= 1
 R47: x0_7_ + x10_7_ <= 1
 R48: x0_8_ + x10_8_ <= 1
 R49: x0_9_ + x10_9_ <= 1
 R50: x1_6_ + x5_6_ <= 1
 R51: x1_7_ + x5_7_ <= 1
 R52: x1_8_ + x5_8_ <= 1
 R53: x1_9_ + x5_9_ <= 1
 R54: x1_6_ + x11_6_ <= 1
 R55: x1_7_ + x11_7_ <= 1
 R56: x1_8_ + x11_8_ <= 1
 R57: x1_9_ + x11_9_ <= 1
 R58: x1_6_ + x13_6_ <= 1
 R59: x1_7_ + x13_7_ <= 1
 R60: x1_8_ + x13_8_ <= 1
 R61: x1_9_ + x13_9_ <= 1
 R62: x2_7_ + x4_7_ <= 1
 R63: x2_8_ + x4_8_ <= 1
 R64: x2_9_ + x4_9_ <= 1
 R65: x2_7_ + x7_7_ <= 1
 R66: x2_8_ + x7_8_ <= 1
 R67: x2_9_ + x7_9_ <= 1
 R68: x2_7_ + x12_7_ <= 1
 R69: x2_8_ + x12_8_ <= 1
 R70: x2_9_ + x12_9_ <= 1
 R71: x2_7_ + x14_7_ <= 1
 R72: x2_8_ + x14_8_ <= 1
 R73: x2_9_ + x14_9_ <= 1
 R74: x2_7_ + x15_7_ <= 1
 R75: x2_8_ + x15_8_ <= 1
 R76: x2_9_ + x15_9_ <= 1
 R77: x2_7_ + x16_7_ <= 1
 R78: x2_8_ + x16_8_ <= 1
 R79: x2_9_ + x16_9_ <= 1
 R80: x2_7_ + x19_7_ <= 1
 R81: x2_8_ + x19_8_ <= 1
 R82: x2_9_ + x19_9_ <= 1
 R83: x0_0_ + x3_0_ <= 1
 R84: x0_1_ + x3_1_ <= 1
 R85: x0_2_ + x3_2_ <= 1
 R86: x0_3_ + x3_3_ <= 1
 R87: x0_4_ + x3_4_ <= 1
 R88: x0_5_ + x3_5_ <= 1
 R89: x0_6_ + x3_6_ <= 1
 R90: x0_7_ + x3_7_ <= 1
 R91: x0_8_ + x3_8_ <= 1
 R92: x0_9_ + x3_9_ <= 1
 R93: x3_0_ + x6_0_ <= 1
 R94: x3_1_ + x6_1_ <= 1
 R95: x3_2_ + x6_2_ <= 1
 R96: x3_3_ + x6_3_ <= 1
 R97: x3_4_ + x6_4_ <= 1
 R98: x3_5_ + x6_5_ <= 1
 R99: x3_6_ + x6_6_ <= 1
 R100: x3_7_ + x6_7_ <= 1
 R101: x3_8_ + x6_8_ <= 1
 R102: x3_9_ + x6_9_ <= 1
 R103: x4_0_ + x7_0_ <= 1
 R104: x4_1_ + x7_1_ <= 1
 R105: x4_2_ + x7_2_ <= 1
 R106: x4_3_ + x7_3_ <= 1
 R107: x4_4_ + x7_4_ <= 1
 R108: x4_5_ + x7_5_ <= 1
 R109: x4_6_ + x7_6_ <= 1
 R110: x4_7_ + x7_7_ <= 1
 R111: x4_8_ + x7_8_ <= 1
 R112: x4_9_ + x7_9_ <= 1
 R113: x4_0_ + x12_0_ <= 1
 R114: x4_1_ + x12_1_ <= 1
 R115: x4_2_ + x12_2_ <= 1
 R116: x4_3_ + x12_3_ <= 1
 R117: x4_4_ + x12_4_ <= 1
 R118: x4_5_ + x12_5_ <= 1
 R119: x4_6_ + x12_6_ <= 1
 R120: x4_7_ + x12_7_ <= 1
 R121: x4_8_ + x12_8_ <= 1
 R122: x4_9_ + x12_9_ <= 1
 R123: x4_0_ + x16_0_ <= 1
 R124: x4_1_ + x16_1_ <= 1
 R125: x4_2_ + x16_2_ <= 1
 R126: x4_3_ + x16_3_ <= 1
 R127: x4_4_ + x16_4_ <= 1
 R128: x4_5_ + x16_5_ <= 1
 R129: x4_6_ + x16_6_ <= 1
 R130: x4_7_ + x16_7_ <= 1
 R131: x4_8_ + x16_8_ <= 1
 R132: x4_9_ + x16_9_ <= 1
 R133: x4_0_ + x17_0_ <= 1
 R134: x4_1_ + x17_1_ <= 1
 R135: x4_2_ + x17_2_ <= 1
 R136: x4_3_ + x17_3_ <= 1
 R137: x4_4_ + x17_4_ <= 1
 R138: x4_5_ + x17_5_ <= 1
 R139: x4_6_ + x17_6_ <= 1
 R140: x4_7_ + x17_7_ <= 1
 R141: x4_8_ + x17_8_ <= 1
 R142: x4_9_ + x17_9_ <= 1
 R143: x0_6_ + x5_6_ <= 1
 R144: x0_7_ + x5_7_ <= 1
 R145: x0_8_ + x5_8_ <= 1
 R146: x0_9_ + x5_9_ <= 1
 R147: x1_6_ + x5_6_ <= 1
 R148: x1_7_ + x5_7_ <= 1
 R149: x1_8_ + x5_8_ <= 1
 R150: x1_9_ + x5_9_ <= 1
 R151: x5_6_ + x8_6_ <= 1
 R152: x5_7_ + x8_7_ <= 1
 R153: x5_8_ + x8_8_ <= 1
 R154: x5_9_ + x8_9_ <= 1
 R155: x5_6_ + x9_6_ <= 1
 R156: x5_7_ + x9_7_ <= 1
 R157: x5_8_ + x9_8_ <= 1
 R158: x5_9_ + x9_9_ <= 1
 R159: x5_6_ + x11_6_ <= 1
 R160: x5_7_ + x11_7_ <= 1
 R161: x5_8_ + x11_8_ <= 1
 R162: x5_9_ + x11_9_ <= 1
 R163: x5_6_ + x13_6_ <= 1
 R164: x5_7_ + x13_7_ <= 1
 R165: x5_8_ + x13_8_ <= 1
 R166: x5_9_ + x13_9_ <= 1
 R167: x3_0_ + x6_0_ <= 1
 R168: x3_1_ + x6_1_ <= 1
 R169: x3_2_ + x6_2_ <= 1
 R170: x3_3_ + x6_3_ <= 1
 R171: x3_4_ + x6_4_ <= 1
 R172: x3_5_ + x6_5_ <= 1
 R173: x3_6_ + x6_6_ <= 1
 R174: x3_7_ + x6_7_ <= 1
 R175: x3_8_ + x6_8_ <= 1
 R176: x3_9_ + x6_9_ <= 1
 R177: x4_0_ + x7_0_ <= 1
 R178: x4_1_ + x7_1_ <= 1
 R179: x4_2_ + x7_2_ <= 1
 R180: x4_3_ + x7_3_ <= 1
 R181: x4_4_ + x7_4_ <= 1
 R182: x4_5_ + x7_5_ <= 1
 R183: x4_6_ + x7_6_ <= 1
 R184: x4_7_ + x7_7_ <= 1
 R185: x4_8_ + x7_8_ <= 1
 R186: x4_9_ + x7_9_ <= 1
 R187: x7_0_ + x12_0_ <= 1
 R188: x7_1_ + x12_1_ <= 1
 R189: x7_2_ + x12_2_ <= 1
 R190: x7_3_ + x12_3_ <= 1
 R191: x7_4_ + x12_4_ <= 1
 R192: x7_5_ + x12_5_ <= 1
 R193: x7_6_ + x12_6_ <= 1
 R194: x7_7_ + x12_7_ <= 1
 R195: x7_8_ + x12_8_ <= 1
 R196: x7_9_ + x12_9_ <= 1
 R197: x7_0_ + x16_0_ <= 1
 R198: x7_1_ + x16_1_ <= 1
 R199: x7_2_ + x16_2_ <= 1
 R200: x7_3_ + x16_3_ <= 1
 R201: x7_4_ + x16_4_ <= 1
 R202: x7_5_ + x16_5_ <= 1
 R203: x7_6_ + x16_6_ <= 1
 R204: x7_7_ + x16_7_ <= 1
 R205: x7_8_ + x16_8_ <= 1
 R206: x7_9_ + x16_9_ <= 1
 R207: x0_0_ + x8_0_ <= 1
 R208: x0_1_ + x8_1_ <= 1
 R209: x0_2_ + x8_2_ <= 1
 R210: x0_3_ + x8_3_ <= 1
 R211: x0_4_ + x8_4_ <= 1
 R212: x0_5_ + x8_5_ <= 1
 R213: x0_6_ + x8_6_ <= 1
 R214: x0_7_ + x8_7_ <= 1
 R215: x0_8_ + x8_8_ <= 1
 R216: x0_9_ + x8_9_ <= 1
 R217: x0_6_ + x9_6_ <= 1
 R218: x0_7_ + x9_7_ <= 1
 R219: x0_8_ + x9_8_ <= 1
 R220: x0_9_ + x9_9_ <= 1
 R221: x5_6_ + x9_6_ <= 1
 R222: x5_7_ + x9_7_ <= 1
 R223: x5_8_ + x9_8_ <= 1
 R224: x5_9_ + x9_9_ <= 1
 R225: x8_6_ + x9_6_ <= 1
 R226: x8_7_ + x9_7_ <= 1
 R227: x8_8_ + x9_8_ <= 1
 R228: x8_9_ + x9_9_ <= 1
 R229: x9_6_ + x11_6_ <= 1
 R230: x9_7_ + x11_7_ <= 1
 R231: x9_8_ + x11_8_ <= 1
 R232: x9_9_ + x11_9_ <= 1
 R233: x9_6_ + x13_6_ <= 1
 R234: x9_7_ + x13_7_ <= 1
 R235: x9_8_ + x13_8_ <= 1
 R236: x9_9_ + x13_9_ <= 1
 R237: x0_0_ + x10_0_ <= 1
 R238: x0_1_ + x10_1_ <= 1
 R239: x0_2_ + x10_2_ <= 1
 R240: x0_3_ + x10_3_ <= 1
 R241: x0_4_ + x10_4_ <= 1
 R242: x0_5_ + x10_5_ <= 1
 R243: x0_6_ + x10_6_ <= 1
 R244: x0_7_ + x10_7_ <= 1
 R245: x0_8_ + x10_8_ <= 1
 R246: x0_9_ + x10_9_ <= 1
 R247: x0_6_ + x11_6_ <= 1
 R248: x0_7_ + x11_7_ <= 1
 R249: x0_8_ + x11_8_ <= 1
 R250: x0_9_ + x11_9_ <= 1
 R251: x1_6_ + x11_6_ <= 1
 R252: x1_7_ + x11_7_ <= 1
 R253: x1_8_ + x11_8_ <= 1
 R254: x1_9_ + x11_9_ <= 1
 R255: x5_6_ + x11_6_ <= 1
 R256: x5_7_ + x11_7_ <= 1
 R257: x5_8_ + x11_8_ <= 1
 R258: x5_9_ + x11_9_ <= 1
 R259: x8_6_ + x11_6_ <= 1
 R260: x8_7_ + x11_7_ <= 1
 R261: x8_8_ + x11_8_ <= 1
 R262: x8_9_ + x11_9_ <= 1
 R263: x9_6_ + x11_6_ <= 1
 R264: x9_7_ + x11_7_ <= 1
 R265: x9_8_ + x11_8_ <= 1
 R266: x9_9_ + x11_9_ <= 1
 R267: x10_6_ + x11_6_ <= 1
 R268: x10_7_ + x11_7_ <= 1
 R269: x10_8_ + x11_8_ <= 1
 R270: x10_9_ + x11_9_ <= 1
 R271: x11_6_ + x13_6_ <= 1
 R272: x11_7_ + x13_7_ <= 1
 R273: x11_8_ + x13_8_ <= 1
 R274: x11_9_ + x13_9_ <= 1
 R275: x11_6_ + x18_6_ <= 1
 R276: x11_7_ + x18_7_ <= 1
 R277: x11_8_ + x18_8_ <= 1
 R278: x11_9_ + x18_9_ <= 1
 R279: x4_0_ + x12_0_ <= 1
 R280: x4_1_ + x12_1_ <= 1
 R281: x4_2_ + x12_2_ <= 1
 R282: x4_3_ + x12_3_ <= 1
 R283: x4_4_ + x12_4_ <= 1
 R284: x4_5_ + x12_5_ <= 1
 R285: x4_6_ + x12_6_ <= 1
 R286: x4_7_ + x12_7_ <= 1
 R287: x4_8_ + x12_8_ <= 1
 R288: x4_9_ + x12_9_ <= 1
 R289: x7_0_ + x12_0_ <= 1
 R290: x7_1_ + x12_1_ <= 1
 R291: x7_2_ + x12_2_ <= 1
 R292: x7_3_ + x12_3_ <= 1
 R293: x7_4_ + x12_4_ <= 1
 R294: x7_5_ + x12_5_ <= 1
 R295: x7_6_ + x12_6_ <= 1
 R296: x7_7_ + x12_7_ <= 1
 R297: x7_8_ + x12_8_ <= 1
 R298: x7_9_ + x12_9_ <= 1
 R299: x12_0_ + x16_0_ <= 1
 R300: x12_1_ + x16_1_ <= 1
 R301: x12_2_ + x16_2_ <= 1
 R302: x12_3_ + x16_3_ <= 1
 R303: x12_4_ + x16_4_ <= 1
 R304: x12_5_ + x16_5_ <= 1
 R305: x12_6_ + x16_6_ <= 1
 R306: x12_7_ + x16_7_ <= 1
 R307: x12_8_ + x16_8_ <= 1
 R308: x12_9_ + x16_9_ <= 1
 R309: x12_0_ + x17_0_ <= 1
 R310: x12_1_ + x17_1_ <= 1
 R311: x12_2_ + x17_2_ <= 1
 R312: x12_3_ + x17_3_ <= 1
 R313: x12_4_ + x17_4_ <= 1
 R314: x12_5_ + x17_5_ <= 1
 R315: x12_6_ + x17_6_ <= 1
 R316: x12_7_ + x17_7_ <= 1
 R317: x12_8_ + x17_8_ <= 1
 R318: x12_9_ + x17_9_ <= 1
 R319: x0_6_ + x13_6_ <= 1
 R320: x0_7_ + x13_7_ <= 1
 R321: x0_8_ + x13_8_ <= 1
 R322: x0_9_ + x13_9_ <= 1
 R323: x1_6_ + x13_6_ <= 1
 R324: x1_7_ + x13_7_ <= 1
 R325: x1_8_ + x13_8_ <= 1
 R326: x1_9_ + x13_9_ <= 1
 R327: x5_6_ + x13_6_ <= 1
 R328: x5_7_ + x13_7_ <= 1
 R329: x5_8_ + x13_8_ <= 1
 R330: x5_9_ + x13_9_ <= 1
 R331: x8_6_ + x13_6_ <= 1
 R332: x8_7_ + x13_7_ <= 1
 R333: x8_8_ + x13_8_ <= 1
 R334: x8_9_ + x13_9_ <= 1
 R335: x9_6_ + x13_6_ <= 1
 R336: x9_7_ + x13_7_ <= 1
 R337: x9_8_ + x13_8_ <= 1
 R338: x9_9_ + x13_9_ <= 1
 R339: x11_6_ + x13_6_ <= 1
 R340: x11_7_ + x13_7_ <= 1
 R341: x11_8_ + x13_8_ <= 1
 R342: x11_9_ + x13_9_ <= 1
 R343: x4_6_ + x14_6_ <= 1
 R344: x4_7_ + x14_7_ <= 1
 R345: x4_8_ + x14_8_ <= 1
 R346: x4_9_ + x14_9_ <= 1
 R347: x7_6_ + x14_6_ <= 1
 R348: x7_7_ + x14_7_ <= 1
 R349: x7_8_ + x14_8_ <= 1
 R350: x7_9_ + x14_9_ <= 1
 R351: x12_6_ + x14_6_ <= 1
 R352: x12_7_ + x14_7_ <= 1
 R353: x12_8_ + x14_8_ <= 1
 R354: x12_9_ + x14_9_ <= 1
 R355: x14_6_ + x16_6_ <= 1
 R356: x14_7_ + x16_7_ <= 1
 R357: x14_8_ + x16_8_ <= 1
 R358: x14_9_ + x16_9_ <= 1
 R359: x2_7_ + x15_7_ <= 1
 R360: x2_8_ + x15_8_ <= 1
 R361: x2_9_ + x15_9_ <= 1
 R362: x4_7_ + x15_7_ <= 1
 R363: x4_8_ + x15_8_ <= 1
 R364: x4_9_ + x15_9_ <= 1
 R365: x7_7_ + x15_7_ <= 1
 R366: x7_8_ + x15_8_ <= 1
 R367: x7_9_ + x15_9_ <= 1
 R368: x12_7_ + x15_7_ <= 1
 R369: x12_8_ + x15_8_ <= 1
 R370: x12_9_ + x15_9_ <= 1
 R371: x14_7_ + x15_7_ <= 1
 R372: x14_8_ + x15_8_ <= 1
 R373: x14_9_ + x15_9_ <= 1
 R374: x15_7_ + x16_7_ <= 1
 R375: x15_8_ + x16_8_ <= 1
 R376: x15_9_ + x16_9_ <= 1
 R377: x15_7_ + x17_7_ <= 1
 R378: x15_8_ + x17_8_ <= 1
 R379: x15_9_ + x17_9_ <= 1
 R380: x15_7_ + x19_7_ <= 1
 R381: x15_8_ + x19_8_ <= 1
 R382: x15_9_ + x19_9_ <= 1
 R383: x4_0_ + x16_0_ <= 1
 R384: x4_1_ + x16_1_ <= 1
 R385: x4_2_ + x16_2_ <= 1
 R386: x4_3_ + x16_3_ <= 1
 R387: x4_4_ + x16_4_ <= 1
 R388: x4_5_ + x16_5_ <= 1
 R389: x4_6_ + x16_6_ <= 1
 R390: x4_7_ + x16_7_ <= 1
 R391: x4_8_ + x16_8_ <= 1
 R392: x4_9_ + x16_9_ <= 1
 R393: x7_0_ + x16_0_ <= 1
 R394: x7_1_ + x16_1_ <= 1
 R395: x7_2_ + x16_2_ <= 1
 R396: x7_3_ + x16_3_ <= 1
 R397: x7_4_ + x16_4_ <= 1
 R398: x7_5_ + x16_5_ <= 1
 R399: x7_6_ + x16_6_ <= 1
 R400: x7_7_ + x16_7_ <= 1
 R401: x7_8_ + x16_8_ <= 1
 R402: x7_9_ + x16_9_ <= 1
 R403: x12_0_ + x16_0_ <= 1
 R404: x12_1_ + x16_1_ <= 1
 R405: x12_2_ + x16_2_ <= 1
 R406: x12_3_ + x16_3_ <= 1
 R407: x12_4_ + x16_4_ <= 1
 R408: x12_5_ + x16_5_ <= 1
 R409: x12_6_ + x16_6_ <= 1
 R410: x12_7_ + x16_7_ <= 1
 R411: x12_8_ + x16_8_ <= 1
 R412: x12_9_ + x16_9_ <= 1
 R413: x4_0_ + x17_0_ <= 1
 R414: x4_1_ + x17_1_ <= 1
 R415: x4_2_ + x17_2_ <= 1
 R416: x4_3_ + x17_3_ <= 1
 R417: x4_4_ + x17_4_ <= 1
 R418: x4_5_ + x17_5_ <= 1
 R419: x4_6_ + x17_6_ <= 1
 R420: x4_7_ + x17_7_ <= 1
 R421: x4_8_ + x17_8_ <= 1
 R422: x4_9_ + x17_9_ <= 1
 R423: x12_0_ + x17_0_ <= 1
 R424: x12_1_ + x17_1_ <= 1
 R425: x12_2_ + x17_2_ <= 1
 R426: x12_3_ + x17_3_ <= 1
 R427: x12_4_ + x17_4_ <= 1
 R428: x12_5_ + x17_5_ <= 1
 R429: x12_6_ + x17_6_ <= 1
 R430: x12_7_ + x17_7_ <= 1
 R431: x12_8_ + x17_8_ <= 1
 R432: x12_9_ + x17_9_ <= 1
 R433: x0_6_ + x18_6_ <= 1
 R434: x0_7_ + x18_7_ <= 1
 R435: x0_8_ + x18_8_ <= 1
 R436: x0_9_ + x18_9_ <= 1
 R437: x3_6_ + x18_6_ <= 1
 R438: x3_7_ + x18_7_ <= 1
 R439: x3_8_ + x18_8_ <= 1
 R440: x3_9_ + x18_9_ <= 1
 R441: x6_6_ + x18_6_ <= 1
 R442: x6_7_ + x18_7_ <= 1
 R443: x6_8_ + x18_8_ <= 1
 R444: x6_9_ + x18_9_ <= 1
 R445: x10_6_ + x18_6_ <= 1
 R446: x10_7_ + x18_7_ <= 1
 R447: x10_8_ + x18_8_ <= 1
 R448: x10_9_ + x18_9_ <= 1
 R449: x11_6_ + x18_6_ <= 1
 R450: x11_7_ + x18_7_ <= 1
 R451: x11_8_ + x18_8_ <= 1
 R452: x11_9_ + x18_9_ <= 1
 R453: x2_7_ + x19_7_ <= 1
 R454: x2_8_ + x19_8_ <= 1
 R455: x2_9_ + x19_9_ <= 1
 R456: x4_7_ + x19_7_ <= 1
 R457: x4_8_ + x19_8_ <= 1
 R458: x4_9_ + x19_9_ <= 1
 R459: x7_7_ + x19_7_ <= 1
 R460: x7_8_ + x19_8_ <= 1
 R461: x7_9_ + x19_9_ <= 1
 R462: x12_7_ + x19_7_ <= 1
 R463: x12_8_ + x19_8_ <= 1
 R464: x12_9_ + x19_9_ <= 1
 R465: x14_7_ + x19_7_ <= 1
 R466: x14_8_ + x19_8_ <= 1
 R467: x14_9_ + x19_9_ <= 1
 R468: x15_7_ + x19_7_ <= 1
 R469: x15_8_ + x19_8_ <= 1
 R470: x15_9_ + x19_9_ <= 1
 R471: x16_7_ + x19_7_ <= 1
 R472: x16_8_ + x19_8_ <= 1
 R473: x16_9_ + x19_9_ <= 1
 R474: x17_7_ + x19_7_ <= 1
 R475: x17_8_ + x19_8_ <= 1
 R476: x17_9_ + x19_9_ <= 1
 R477: <= 1
 R478: 36 x0_0_ + 36 x0_1_ + 36 x0_2_ + 36 x0_3_ + 36 x0_4_ + 36 x0_5_
   + 28 x0_6_ + 8 x0_7_ + 8 x0_8_ + 8 x0_9_ + 144 x1_7_ + 144 x1_8_
   + 144 x1_9_ + 34 x2_7_ + 34 x2_8_ + 34 x2_9_ + 18 x3_0_ + 18 x3_1_
   + 18 x3_2_ + 18 x3_3_ + 18 x3_4_ + 18 x3_5_ + 14 x3_6_ + 4 x3_7_
   + 4 x3_8_ + 4 x3_9_ + 36 x4_0_ + 36 x4_1_ + 36 x4_2_ + 36 x4_3_
   + 36 x4_4_ + 36 x4_5_ + 28 x4_6_ + 8 x4_7_ + 8 x4_8_ + 8 x4_9_
   + 216 x5_7_ + 216 x5_8_ + 216 x5_9_ + 9 x6_0_ + 9 x6_1_ + 9 x6_2_
   + 9 x6_3_ + 9 x6_4_ + 9 x6_5_ + 7 x6_6_ + 2 x6_7_ + 2 x6_8_ + 2 x6_9_
   + 18 x7_0_ + 18 x7_1_ + 18 x7_2_ + 18 x7_3_ + 18 x7_4_ + 18 x7_5_
   + 14 x7_6_ + 4 x7_7_ + 4 x7_8_ + 4 x7_9_ + 9 x8_0_ + 9 x8_1_ + 9 x8_2_
   + 9 x8_3_ + 9 x8_4_ + 9 x8_5_ + 7 x8_6_ + 2 x8_7_ + 2 x8_8_ + 2 x8_9_
   + 72 x9_7_ + 72 x9_8_ + 72 x9_9_ + 18 x10_0_ + 18 x10_1_ + 18 x10_2_
   + 18 x10_3_ + 18 x10_4_ + 18 x10_5_ + 14 x10_6_ + 4 x10_7_ + 4 x10_8_
   + 4 x10_9_ + 360 x11_7_ + 360 x11_8_ + 360 x11_9_ + 27 x12_0_
   + 27 x12_1_ + 27 x12_2_ + 27 x12_3_ + 27 x12_4_ + 27 x12_5_ + 21 x12_6_
   + 6 x12_7_ + 6 x12_8_ + 6 x12_9_ + 144 x13_7_ + 144 x13_8_ + 144 x13_9_
   + 288 x14_7_ + 288 x14_8_ + 288 x14_9_ + 68 x15_7_ + 68 x15_8_
   + 68 x15_9_ + 18 x16_0_ + 18 x16_1_ + 18 x16_2_ + 18 x16_3_ + 18 x16_4_
   + 18 x16_5_ + 14 x16_6_ + 4 x16_7_ + 4 x16_8_ + 4 x16_9_ + 18 x17_0_
   + 18 x17_1_ + 18 x17_2_ + 18 x17_3_ + 18 x17_4_ + 18 x17_5_ + 14 x17_6_
   + 4 x17_7_ + 4 x17_8_ + 4 x17_9_ + 216 x18_7_ + 216 x18_8_ + 216 x18_9_
   + 102 x19_7_ + 102 x19_8_ + 102 x19_9_ >= 1673
 R479: x0_0_ + x1_7_ + x2_n_ + x3_1_ + x4_0_ + x5_8_ + x6_0_ + x7_1_
   + x8_1_ + x9_7_ + x10_1_ + x11_9_ + x12_2_ + x13_n_ + x14_7_ + x15_8_
   + x16_3_ + x17_1_ + x18_7_ + x19_9_ <= 19
 R480: x0_3_ + x1_8_ + x2_n_ + x3_4_ + x4_4_ + x5_7_ + x6_3_ + x7_0_
   + x8_4_ + x9_8_ + x10_4_ + x11_9_ + x12_3_ + x13_6_ + x14_7_ + x15_9_
   + x16_1_ + x17_0_ + x18_7_ + x19_8_ <= 19
 R481: x0_3_ + x1_7_ + x2_n_ + x3_4_ + x4_4_ + x5_8_ + x6_3_ + x7_2_
   + x8_4_ + x9_7_ + x10_4_ + x11_9_ + x12_3_ + x13_n_ + x14_9_ + x15_7_
   + x16_0_ + x17_2_ + x18_7_ + x19_8_ <= 19
Bounds
Binaries
 x0_0_ x0_1_ x0_2_ x0_3_ x0_4_ x0_5_ x0_6_ x0_7_ x0_8_ x0_9_ x0_n_ x1_6_
 x1_7_ x1_8_ x1_9_ x1_n_ x2_7_ x2_8_ x2_9_ x2_n_ x3_0_ x3_1_ x3_2_ x3_3_
 x3_4_ x3_5_ x3_6_ x3_7_ x3_8_ x3_9_ x3_n_ x4_0_ x4_1_ x4_2_ x4_3_ x4_4_
 x4_5_ x4_6_ x4_7_ x4_8_ x4_9_ x4_n_ x5_6_ x5_7_ x5_8_ x5_9_ x5_n_ x6_0_
 x6_1_ x6_2_ x6_3_ x6_4_ x6_5_ x6_6_ x6_7_ x6_8_ x6_9_ x6_n_ x7_0_ x7_1_
 x7_2_ x7_3_ x7_4_ x7_5_ x7_6_ x7_7_ x7_8_ x7_9_ x7_n_ x8_0_ x8_1_ x8_2_
 x8_3_ x8_4_ x8_5_ x8_6_ x8_7_ x8_8_ x8_9_ x8_n_ x9_6_ x9_7_ x9_8_ x9_9_
 x9_n_ x10_0_ x10_1_ x10_2_ x10_3_ x10_4_ x10_5_ x10_6_ x10_7_ x10_8_
 x10_9_ x10_n_ x11_6_ x11_7_ x11_8_ x11_9_ x11_n_ x12_0_ x12_1_ x12_2_
 x12_3_ x12_4_ x12_5_ x12_6_ x12_7_ x12_8_ x12_9_ x12_n_ x13_6_ x13_7_
 x13_8_ x13_9_ x13_n_ x14_6_ x14_7_ x14_8_ x14_9_ x14_n_ x15_7_ x15_8_
 x15_9_ x15_n_ x16_0_ x16_1_ x16_2_ x16_3_ x16_4_ x16_5_ x16_6_ x16_7_
 x16_8_ x16_9_ x16_n_ x17_0_ x17_1_ x17_2_ x17_3_ x17_4_ x17_5_ x17_6_
 x17_7_ x17_8_ x17_9_ x17_n_ x18_6_ x18_7_ x18_8_ x18_9_ x18_n_ x19_7_
 x19_8_ x19_9_ x19_n_
End
